32	0

0	1	2
5	1	3
9	1	4
8	1	5
10	1	6
7	1	7
7	1	8
3	2	9	10
7	2	11	12
7	2	11	12
8	1	13
5	1	13
6	1	14
1	1	15
8	1	16
8	1	17
10	2	18	19
9	1	20
10	1	20
1	1	21
3	1	22
1	1	23
3	1	24
5	1	25
9	1	26
5	1	27
10	1	28
4	1	29
1	1	30
6	1	31
7	1	32
0	0
